p cnf 175 1093
1 2 3 4 5 0
6 7 8 9 10 0
11 12 13 14 15 0
16 17 18 19 20 0
21 22 23 24 25 0
26 27 28 29 30 0
31 32 33 34 35 0
36 37 38 39 40 0
41 42 43 44 45 0
46 47 48 49 50 0
51 52 53 54 55 0
56 57 58 59 60 0
61 62 63 64 65 0
66 67 68 69 70 0
71 72 73 74 75 0
76 77 78 79 80 0
81 82 83 84 85 0
86 87 88 89 90 0
91 92 93 94 95 0
96 97 98 99 100 0
101 102 103 104 105 0
106 107 108 109 110 0
111 112 113 114 115 0
116 117 118 119 120 0
121 122 123 124 125 0
126 127 128 129 130 0
131 132 133 134 135 0
136 137 138 139 140 0
141 142 143 144 145 0
146 147 148 149 150 0
151 152 153 154 155 0
156 157 158 159 160 0
161 162 163 164 165 0
166 167 168 169 170 0
171 172 173 174 175 0
-1 -2 0
-1 -3 0
-1 -4 0
-1 -5 0
-2 -3 0
-2 -4 0
-2 -5 0
-3 -4 0
-3 -5 0
-4 -5 0
-6 -7 0
-6 -8 0
-6 -9 0
-6 -10 0
-7 -8 0
-7 -9 0
-7 -10 0
-8 -9 0
-8 -10 0
-9 -10 0
-11 -12 0
-11 -13 0
-11 -14 0
-11 -15 0
-12 -13 0
-12 -14 0
-12 -15 0
-13 -14 0
-13 -15 0
-14 -15 0
-16 -17 0
-16 -18 0
-16 -19 0
-16 -20 0
-17 -18 0
-17 -19 0
-17 -20 0
-18 -19 0
-18 -20 0
-19 -20 0
-21 -22 0
-21 -23 0
-21 -24 0
-21 -25 0
-22 -23 0
-22 -24 0
-22 -25 0
-23 -24 0
-23 -25 0
-24 -25 0
-26 -27 0
-26 -28 0
-26 -29 0
-26 -30 0
-27 -28 0
-27 -29 0
-27 -30 0
-28 -29 0
-28 -30 0
-29 -30 0
-31 -32 0
-31 -33 0
-31 -34 0
-31 -35 0
-32 -33 0
-32 -34 0
-32 -35 0
-33 -34 0
-33 -35 0
-34 -35 0
-36 -37 0
-36 -38 0
-36 -39 0
-36 -40 0
-37 -38 0
-37 -39 0
-37 -40 0
-38 -39 0
-38 -40 0
-39 -40 0
-41 -42 0
-41 -43 0
-41 -44 0
-41 -45 0
-42 -43 0
-42 -44 0
-42 -45 0
-43 -44 0
-43 -45 0
-44 -45 0
-46 -47 0
-46 -48 0
-46 -49 0
-46 -50 0
-47 -48 0
-47 -49 0
-47 -50 0
-48 -49 0
-48 -50 0
-49 -50 0
-51 -52 0
-51 -53 0
-51 -54 0
-51 -55 0
-52 -53 0
-52 -54 0
-52 -55 0
-53 -54 0
-53 -55 0
-54 -55 0
-56 -57 0
-56 -58 0
-56 -59 0
-56 -60 0
-57 -58 0
-57 -59 0
-57 -60 0
-58 -59 0
-58 -60 0
-59 -60 0
-61 -62 0
-61 -63 0
-61 -64 0
-61 -65 0
-62 -63 0
-62 -64 0
-62 -65 0
-63 -64 0
-63 -65 0
-64 -65 0
-66 -67 0
-66 -68 0
-66 -69 0
-66 -70 0
-67 -68 0
-67 -69 0
-67 -70 0
-68 -69 0
-68 -70 0
-69 -70 0
-71 -72 0
-71 -73 0
-71 -74 0
-71 -75 0
-72 -73 0
-72 -74 0
-72 -75 0
-73 -74 0
-73 -75 0
-74 -75 0
-76 -77 0
-76 -78 0
-76 -79 0
-76 -80 0
-77 -78 0
-77 -79 0
-77 -80 0
-78 -79 0
-78 -80 0
-79 -80 0
-81 -82 0
-81 -83 0
-81 -84 0
-81 -85 0
-82 -83 0
-82 -84 0
-82 -85 0
-83 -84 0
-83 -85 0
-84 -85 0
-86 -87 0
-86 -88 0
-86 -89 0
-86 -90 0
-87 -88 0
-87 -89 0
-87 -90 0
-88 -89 0
-88 -90 0
-89 -90 0
-91 -92 0
-91 -93 0
-91 -94 0
-91 -95 0
-92 -93 0
-92 -94 0
-92 -95 0
-93 -94 0
-93 -95 0
-94 -95 0
-96 -97 0
-96 -98 0
-96 -99 0
-96 -100 0
-97 -98 0
-97 -99 0
-97 -100 0
-98 -99 0
-98 -100 0
-99 -100 0
-101 -102 0
-101 -103 0
-101 -104 0
-101 -105 0
-102 -103 0
-102 -104 0
-102 -105 0
-103 -104 0
-103 -105 0
-104 -105 0
-106 -107 0
-106 -108 0
-106 -109 0
-106 -110 0
-107 -108 0
-107 -109 0
-107 -110 0
-108 -109 0
-108 -110 0
-109 -110 0
-111 -112 0
-111 -113 0
-111 -114 0
-111 -115 0
-112 -113 0
-112 -114 0
-112 -115 0
-113 -114 0
-113 -115 0
-114 -115 0
-116 -117 0
-116 -118 0
-116 -119 0
-116 -120 0
-117 -118 0
-117 -119 0
-117 -120 0
-118 -119 0
-118 -120 0
-119 -120 0
-121 -122 0
-121 -123 0
-121 -124 0
-121 -125 0
-122 -123 0
-122 -124 0
-122 -125 0
-123 -124 0
-123 -125 0
-124 -125 0
-126 -127 0
-126 -128 0
-126 -129 0
-126 -130 0
-127 -128 0
-127 -129 0
-127 -130 0
-128 -129 0
-128 -130 0
-129 -130 0
-131 -132 0
-131 -133 0
-131 -134 0
-131 -135 0
-132 -133 0
-132 -134 0
-132 -135 0
-133 -134 0
-133 -135 0
-134 -135 0
-136 -137 0
-136 -138 0
-136 -139 0
-136 -140 0
-137 -138 0
-137 -139 0
-137 -140 0
-138 -139 0
-138 -140 0
-139 -140 0
-141 -142 0
-141 -143 0
-141 -144 0
-141 -145 0
-142 -143 0
-142 -144 0
-142 -145 0
-143 -144 0
-143 -145 0
-144 -145 0
-146 -147 0
-146 -148 0
-146 -149 0
-146 -150 0
-147 -148 0
-147 -149 0
-147 -150 0
-148 -149 0
-148 -150 0
-149 -150 0
-151 -152 0
-151 -153 0
-151 -154 0
-151 -155 0
-152 -153 0
-152 -154 0
-152 -155 0
-153 -154 0
-153 -155 0
-154 -155 0
-156 -157 0
-156 -158 0
-156 -159 0
-156 -160 0
-157 -158 0
-157 -159 0
-157 -160 0
-158 -159 0
-158 -160 0
-159 -160 0
-161 -162 0
-161 -163 0
-161 -164 0
-161 -165 0
-162 -163 0
-162 -164 0
-162 -165 0
-163 -164 0
-163 -165 0
-164 -165 0
-166 -167 0
-166 -168 0
-166 -169 0
-166 -170 0
-167 -168 0
-167 -169 0
-167 -170 0
-168 -169 0
-168 -170 0
-169 -170 0
-171 -172 0
-171 -173 0
-171 -174 0
-171 -175 0
-172 -173 0
-172 -174 0
-172 -175 0
-173 -174 0
-173 -175 0
-174 -175 0
-3 -30 0
-2 -28 0
-2 -27 0
-4 -26 0
-1 -26 0
-3 -28 0
-2 -30 0
-4 -27 0
-2 -29 0
-1 -30 0
-2 -26 0
-1 -27 0
-3 -70 0
-4 -67 0
-4 -68 0
-2 -67 0
-4 -69 0
-4 -66 0
-1 -70 0
-2 -69 0
-5 -70 0
-5 -68 0
-1 -68 0
-3 -69 0
-3 -142 0
-2 -141 0
-1 -145 0
-4 -141 0
-2 -143 0
-3 -143 0
-1 -144 0
-1 -142 0
-4 -145 0
-5 -145 0
-5 -142 0
-3 -144 0
-10 -21 0
-9 -24 0
-10 -25 0
-8 -23 0
-7 -22 0
-6 -25 0
-8 -21 0
-6 -24 0
-9 -22 0
-7 -23 0
-9 -25 0
-9 -23 0
-8 -55 0
-10 -53 0
-10 -55 0
-8 -53 0
-6 -54 0
-7 -54 0
-8 -51 0
-6 -53 0
-6 -52 0
-7 -55 0
-8 -54 0
-6 -55 0
-15 -111 0
-14 -112 0
-14 -114 0
-12 -115 0
-13 -111 0
-11 -115 0
-14 -113 0
-15 -114 0
-11 -114 0
-12 -112 0
-13 -113 0
-15 -115 0
-19 -47 0
-20 -50 0
-19 -46 0
-19 -49 0
-18 -50 0
-20 -47 0
-17 -47 0
-18 -48 0
-20 -48 0
-16 -47 0
-20 -49 0
-18 -47 0
-17 -100 0
-17 -99 0
-19 -98 0
-16 -97 0
-18 -96 0
-19 -96 0
-16 -100 0
-20 -96 0
-19 -97 0
-19 -99 0
-16 -98 0
-20 -99 0
-23 -125 0
-21 -122 0
-25 -124 0
-21 -125 0
-22 -124 0
-25 -123 0
-23 -123 0
-22 -122 0
-22 -121 0
-21 -123 0
-25 -121 0
-23 -122 0
-23 -168 0
-24 -167 0
-22 -169 0
-24 -168 0
-21 -170 0
-22 -167 0
-23 -167 0
-22 -170 0
-23 -170 0
-21 -167 0
-21 -166 0
-24 -169 0
-29 -57 0
-29 -58 0
-26 -57 0
-27 -60 0
-28 -57 0
-26 -59 0
-28 -58 0
-28 -56 0
-30 -59 0
-30 -60 0
-30 -57 0
-26 -56 0
-30 -102 0
-28 -103 0
-29 -102 0
-28 -102 0
-28 -104 0
-26 -105 0
-27 -105 0
-30 -103 0
-29 -105 0
-26 -101 0
-26 -103 0
-27 -102 0
-29 -125 0
-27 -121 0
-30 -124 0
-28 -124 0
-30 -125 0
-27 -125 0
-28 -125 0
-26 -121 0
-27 -123 0
-26 -124 0
-29 -123 0
-26 -122 0
-34 -37 0
-33 -38 0
-32 -36 0
-33 -36 0
-34 -38 0
-32 -39 0
-33 -39 0
-32 -38 0
-34 -39 0
-31 -36 0
-31 -40 0
-33 -37 0
-32 -51 0
-31 -54 0
-33 -55 0
-35 -52 0
-33 -52 0
-34 -55 0
-33 -51 0
-31 -53 0
-35 -51 0
-34 -51 0
-33 -54 0
-32 -53 0
-32 -123 0
-32 -124 0
-33 -123 0
-31 -121 0
-33 -125 0
-31 -124 0
-32 -125 0
-31 -125 0
-32 -122 0
-35 -121 0
-35 -123 0
-31 -122 0
-32 -134 0
-31 -135 0
-32 -135 0
-35 -132 0
-33 -132 0
-34 -134 0
-33 -134 0
-34 -132 0
-32 -131 0
-31 -133 0
-35 -135 0
-31 -132 0
-36 -58 0
-37 -57 0
-38 -60 0
-36 -56 0
-36 -57 0
-40 -56 0
-40 -59 0
-40 -58 0
-36 -60 0
-38 -58 0
-37 -56 0
-39 -60 0
-39 -74 0
-38 -74 0
-38 -75 0
-39 -72 0
-36 -75 0
-40 -72 0
-37 -74 0
-39 -73 0
-36 -74 0
-38 -73 0
-36 -73 0
-40 -74 0
-36 -98 0
-38 -97 0
-40 -100 0
-37 -99 0
-37 -96 0
-37 -100 0
-36 -96 0
-38 -96 0
-39 -99 0
-40 -98 0
-39 -100 0
-37 -97 0
-38 -158 0
-36 -158 0
-40 -156 0
-40 -159 0
-39 -156 0
-36 -156 0
-37 -157 0
-40 -158 0
-39 -159 0
-39 -157 0
-36 -159 0
-37 -160 0
-41 -131 0
-44 -134 0
-42 -135 0
-44 -132 0
-43 -135 0
-43 -134 0
-45 -134 0
-43 -133 0
-42 -133 0
-42 -134 0
-45 -132 0
-45 -135 0
-48 -86 0
-47 -90 0
-50 -87 0
-49 -88 0
-50 -86 0
-47 -87 0
-47 -88 0
-50 -88 0
-50 -89 0
-48 -89 0
-46 -87 0
-48 -88 0
-48 -146 0
-50 -148 0
-49 -147 0
-47 -147 0
-46 -148 0
-48 -147 0
-50 -147 0
-48 -148 0
-47 -148 0
-48 -150 0
-49 -149 0
-50 -146 0
-50 -158 0
-48 -160 0
-49 -156 0
-48 -157 0
-50 -160 0
-48 -159 0
-47 -160 0
-48 -156 0
-49 -160 0
-49 -157 0
-46 -158 0
-50 -156 0
-46 -165 0
-47 -161 0
-49 -165 0
-50 -162 0
-47 -165 0
-49 -161 0
-47 -164 0
-48 -163 0
-49 -162 0
-48 -162 0
-46 -161 0
-49 -163 0
-56 -91 0
-56 -95 0
-60 -91 0
-57 -91 0
-58 -94 0
-57 -94 0
-59 -91 0
-57 -93 0
-57 -95 0
-58 -93 0
-57 -92 0
-59 -94 0
-56 -146 0
-57 -146 0
-58 -147 0
-58 -146 0
-58 -149 0
-60 -148 0
-59 -148 0
-60 -150 0
-59 -150 0
-57 -147 0
-57 -149 0
-59 -149 0
-57 -163 0
-59 -161 0
-59 -165 0
-59 -164 0
-57 -161 0
-57 -165 0
-58 -162 0
-60 -165 0
-60 -164 0
-58 -165 0
-60 -163 0
-60 -162 0
-61 -82 0
-65 -84 0
-65 -82 0
-61 -84 0
-62 -82 0
-64 -83 0
-62 -81 0
-63 -84 0
-64 -81 0
-62 -83 0
-62 -85 0
-61 -85 0
-63 -86 0
-61 -86 0
-61 -90 0
-64 -90 0
-65 -89 0
-63 -87 0
-62 -90 0
-64 -89 0
-61 -88 0
-65 -88 0
-65 -86 0
-62 -88 0
-65 -109 0
-61 -110 0
-62 -108 0
-61 -108 0
-65 -106 0
-65 -108 0
-63 -106 0
-62 -107 0
-64 -108 0
-63 -107 0
-61 -109 0
-62 -109 0
-68 -97 0
-67 -96 0
-68 -96 0
-67 -97 0
-66 -100 0
-66 -96 0
-69 -100 0
-67 -98 0
-69 -99 0
-66 -98 0
-69 -98 0
-69 -97 0
-68 -144 0
-68 -142 0
-68 -141 0
-67 -142 0
-67 -144 0
-70 -142 0
-69 -141 0
-69 -143 0
-67 -143 0
-67 -141 0
-70 -141 0
-67 -145 0
-74 -81 0
-75 -82 0
-72 -83 0
-71 -85 0
-72 -84 0
-74 -84 0
-73 -84 0
-71 -84 0
-74 -85 0
-71 -81 0
-75 -83 0
-73 -83 0
-72 -92 0
-73 -94 0
-74 -95 0
-73 -93 0
-72 -91 0
-73 -91 0
-74 -91 0
-75 -95 0
-75 -92 0
-73 -95 0
-74 -92 0
-74 -93 0
-73 -104 0
-71 -104 0
-74 -102 0
-73 -105 0
-72 -101 0
-75 -102 0
-72 -102 0
-75 -105 0
-71 -103 0
-74 -104 0
-74 -105 0
-72 -104 0
-74 -134 0
-72 -132 0
-73 -131 0
-73 -134 0
-71 -135 0
-71 -132 0
-71 -134 0
-72 -135 0
-71 -131 0
-74 -133 0
-74 -132 0
-75 -131 0
-73 -173 0
-72 -174 0
-75 -175 0
-71 -173 0
-71 -172 0
-75 -172 0
-74 -174 0
-74 -175 0
-72 -171 0
-72 -173 0
-74 -171 0
-71 -175 0
-77 -130 0
-79 -130 0
-76 -128 0
-76 -129 0
-78 -129 0
-80 -130 0
-80 -126 0
-77 -129 0
-77 -128 0
-76 -130 0
-80 -128 0
-78 -127 0
-79 -136 0
-79 -138 0
-78 -140 0
-80 -140 0
-79 -139 0
-77 -137 0
-76 -136 0
-78 -138 0
-77 -138 0
-80 -137 0
-76 -138 0
-78 -139 0
-81 -119 0
-83 -116 0
-84 -119 0
-84 -120 0
-81 -117 0
-85 -117 0
-85 -119 0
-84 -117 0
-82 -117 0
-82 -119 0
-85 -118 0
-83 -119 0
-81 -126 0
-83 -126 0
-82 -128 0
-84 -127 0
-81 -130 0
-81 -129 0
-83 -128 0
-84 -126 0
-84 -129 0
-85 -130 0
-82 -127 0
-84 -130 0
-83 -161 0
-81 -165 0
-83 -162 0
-84 -165 0
-83 -164 0
-81 -162 0
-82 -161 0
-81 -163 0
-81 -161 0
-85 -161 0
-85 -163 0
-82 -165 0
-88 -94 0
-89 -94 0
-86 -95 0
-86 -94 0
-90 -92 0
-86 -92 0
-88 -92 0
-90 -94 0
-87 -91 0
-88 -91 0
-89 -91 0
-90 -91 0
-88 -107 0
-89 -106 0
-86 -106 0
-86 -108 0
-87 -108 0
-86 -110 0
-89 -110 0
-86 -107 0
-90 -110 0
-90 -109 0
-89 -108 0
-88 -108 0
-93 -134 0
-93 -131 0
-91 -134 0
-95 -134 0
-94 -135 0
-92 -132 0
-91 -135 0
-92 -135 0
-94 -134 0
-94 -133 0
-94 -131 0
-95 -132 0
-100 -144 0
-96 -143 0
-98 -144 0
-97 -144 0
-99 -145 0
-100 -145 0
-100 -142 0
-98 -145 0
-98 -142 0
-97 -145 0
-99 -141 0
-97 -143 0
-105 -106 0
-103 -109 0
-105 -109 0
-104 -107 0
-102 -109 0
-101 -106 0
-101 -107 0
-102 -110 0
-104 -109 0
-105 -110 0
-103 -108 0
-102 -106 0
-101 -150 0
-105 -149 0
-105 -148 0
-102 -149 0
-103 -149 0
-104 -147 0
-102 -148 0
-101 -149 0
-103 -146 0
-105 -147 0
-103 -150 0
-103 -147 0
-109 -130 0
-109 -126 0
-106 -129 0
-108 -127 0
-108 -126 0
-110 -128 0
-107 -130 0
-106 -127 0
-108 -130 0
-107 -129 0
-110 -126 0
-106 -128 0
-116 -154 0
-119 -153 0
-120 -153 0
-119 -152 0
-117 -151 0
-117 -153 0
-118 -152 0
-116 -152 0
-119 -151 0
-118 -154 0
-119 -155 0
-116 -151 0
-117 -157 0
-118 -160 0
-116 -157 0
-117 -160 0
-118 -158 0
-118 -159 0
-116 -158 0
-119 -160 0
-116 -160 0
-119 -157 0
-119 -159 0
-120 -160 0
-125 -141 0
-122 -145 0
-122 -142 0
-125 -143 0
-122 -144 0
-121 -141 0
-125 -145 0
-121 -145 0
-123 -145 0
-121 -143 0
-123 -141 0
-123 -143 0
-122 -148 0
-121 -148 0
-124 -147 0
-121 -149 0
-122 -150 0
-125 -147 0
-124 -149 0
-122 -149 0
-124 -148 0
-123 -148 0
-121 -150 0
-123 -149 0
-134 -139 0
-133 -138 0
-135 -140 0
-133 -139 0
-131 -138 0
-132 -139 0
-135 -139 0
-134 -137 0
-135 -137 0
-133 -136 0
-134 -136 0
-131 -139 0
-140 -142 0
-139 -142 0
-139 -141 0
-136 -145 0
-139 -145 0
-139 -143 0
-137 -144 0
-137 -141 0
-138 -144 0
-136 -142 0
-140 -141 0
-136 -144 0
-136 -146 0
-138 -147 0
-137 -146 0
-139 -150 0
-138 -146 0
-136 -147 0
-136 -149 0
-137 -147 0
-139 -148 0
-140 -150 0
-139 -146 0
-138 -148 0
-144 -150 0
-145 -148 0
-142 -147 0
-143 -147 0
-143 -146 0
-145 -146 0
-145 -149 0
-142 -148 0
-144 -148 0
-141 -148 0
-141 -147 0
-143 -148 0
